c SAT problem
p wcnf 38 39
1 60 3150 0
1 60 -3165 0
1 75 -3120 0
1 -90 -105 0
1 -90 -3090 0
1 -3150 -166 0
1 3150 151 0
1 150 -3030 0
1 -165 3060 0
1 3075 135 0
1 3090 -135 0
1 3105 196 0
1 -3105 211 0
1 180 3060 0
1 180 -181 0
1 225 3000 0
1 -3000 -225 0
1 -3000 -165 0
1 3000 210 0
1 -166 3180 0
1 -3255 -211 0
1 3270 -166 0
1 181 -3195 0
1 196 -3105 0
1 196 -195 0
1 -196 -181 0
1 -211 -3255 0
1 -226 3090 0
1 -3180 -181 0
1 3180 285 0
1 3195 226 0
1 3195 3180 0
1 3225 -196 0
1 -240 3151 0
1 -240 -255 0
1 -255 -3136 0
1 -255 3195 0
1 3151 -270 0
1 3166 -211 0
